<?xml version = "1.0" standalone="yes"?>
<!-- This file has been generated by DOcplex version 2.23.222  -->
<CPLEXSolution version="1.0">
 <header
   problemName="CVRP"
   objectiveValue="17986.9"
  />
 <variables>
  <variable name="x_0_1" index="0" value="1.00000"/>
  <variable name="x_0_5" index="4" value="1.00000"/>
  <variable name="x_0_6" index="5" value="1.00000"/>
  <variable name="x_0_7" index="6" value="1.00000"/>
  <variable name="x_0_8" index="7" value="1.00000"/>
  <variable name="x_0_9" index="8" value="1.00000"/>
  <variable name="x_0_13" index="12" value="1.00000"/>
  <variable name="x_0_14" index="13" value="1.00000"/>
  <variable name="x_0_17" index="16" value="1.00000"/>
  <variable name="x_0_21" index="20" value="1.00000"/>
  <variable name="x_0_22" index="21" value="1.00000"/>
  <variable name="x_0_23" index="22" value="1.00000"/>
  <variable name="x_0_24" index="23" value="1.00000"/>
  <variable name="x_0_25" index="24" value="1.00000"/>
  <variable name="x_0_27" index="26" value="1.00000"/>
  <variable name="x_0_28" index="27" value="1.00000"/>
  <variable name="x_1_0" index="29" value="1.00000"/>
  <variable name="x_2_0" index="58" value="1.00000"/>
  <variable name="x_3_0" index="87" value="1.00000"/>
  <variable name="x_4_0" index="116" value="1.00000"/>
  <variable name="x_5_12" index="156" value="1.00000"/>
  <variable name="x_6_18" index="191" value="1.00000"/>
  <variable name="x_7_29" index="231" value="1.00000"/>
  <variable name="x_8_10" index="241" value="1.00000"/>
  <variable name="x_9_16" index="276" value="1.00000"/>
  <variable name="x_10_0" index="290" value="1.00000"/>
  <variable name="x_11_0" index="319" value="1.00000"/>
  <variable name="x_12_0" index="348" value="1.00000"/>
  <variable name="x_13_26" index="402" value="1.00000"/>
  <variable name="x_14_0" index="406" value="1.00000"/>
  <variable name="x_15_0" index="435" value="1.00000"/>
  <variable name="x_16_0" index="464" value="1.00000"/>
  <variable name="x_17_0" index="493" value="1.00000"/>
  <variable name="x_18_19" index="540" value="1.00000"/>
  <variable name="x_19_0" index="551" value="1.00000"/>
  <variable name="x_20_0" index="580" value="1.00000"/>
  <variable name="x_21_2" index="611" value="1.00000"/>
  <variable name="x_22_0" index="638" value="1.00000"/>
  <variable name="x_23_0" index="667" value="1.00000"/>
  <variable name="x_24_11" index="707" value="1.00000"/>
  <variable name="x_25_3" index="728" value="1.00000"/>
  <variable name="x_26_0" index="754" value="1.00000"/>
  <variable name="x_27_20" index="803" value="1.00000"/>
  <variable name="x_28_4" index="816" value="1.00000"/>
  <variable name="x_29_15" index="856" value="1.00000"/>
  <variable name="u_1" index="870" value="32.00000"/>
  <variable name="u_2" index="871" value="29.00000"/>
  <variable name="u_3" index="872" value="32.00000"/>
  <variable name="u_4" index="873" value="32.00000"/>
  <variable name="u_5" index="874" value="28.00000"/>
  <variable name="u_6" index="875" value="13.00000"/>
  <variable name="u_7" index="876" value="7.00000"/>
  <variable name="u_8" index="877" value="11.00000"/>
  <variable name="u_9" index="878" value="14.00000"/>
  <variable name="u_10" index="879" value="31.00000"/>
  <variable name="u_11" index="880" value="31.00000"/>
  <variable name="u_12" index="881" value="32.00000"/>
  <variable name="u_13" index="882" value="9.00000"/>
  <variable name="u_14" index="883" value="32.00000"/>
  <variable name="u_15" index="884" value="32.00000"/>
  <variable name="u_16" index="885" value="32.00000"/>
  <variable name="u_17" index="886" value="30.00000"/>
  <variable name="u_18" index="887" value="21.00000"/>
  <variable name="u_19" index="888" value="32.00000"/>
  <variable name="u_20" index="889" value="32.00000"/>
  <variable name="u_21" index="890" value="3.00000"/>
  <variable name="u_22" index="891" value="31.00000"/>
  <variable name="u_23" index="892" value="32.00000"/>
  <variable name="u_24" index="893" value="20.00000"/>
  <variable name="u_25" index="894" value="27.00000"/>
  <variable name="u_26" index="895" value="26.00000"/>
  <variable name="u_27" index="896" value="25.00000"/>
  <variable name="u_28" index="897" value="13.00000"/>
  <variable name="u_29" index="898" value="17.00000"/>
 </variables>
</CPLEXSolution>
